
Gurobi 12.0.2 (mac64[arm], Python) logging started Mon Jul 14 13:53:19 2025

Set parameter Username
Set parameter LicenseID to value 2687934
Set parameter LogFile to value "gurobi.log"
Academic license - for non-commercial use only - expires 2026-07-14
